%datafile - Caso 1 (ext2): Restrictivo + producto premium con dureza estrecha
% P1: producto estándar (rango [3.5, 5.5], precio alto 200)
% P2: producto premium (rango muy estrecho [4.0, 5.0], mejor precio 220)
VALOR_p = [200, 220];
MinD_p  = [3.5, 4.0];
MaxD_p  = [5.5, 5.0];

dureza = [8.8, 6.1, 2.0, 4.2, 5.0];
precios = [| 110, 120, 130, 110, 115
           | 130, 130, 110,  90, 115
           | 110, 140, 130, 100,  95
           | 120, 110, 120, 120, 125
           | 100, 120, 150, 110, 105
           |  90, 100, 140,  80, 135 |];

MAXV = 150;
MAXN = 200;

PV = 5;

MCAP = 500;

CA = 8;

MinB = 80000;

inicial = [200, 200, 200, 200, 200];

%Nuevos

K = [2, 2, 2, 2, 2, 2];

T = [| 0, 0, 0, 0, 0
     | 0, 0, 0, 0, 0
     | 0, 0, 0, 0, 0
     | 0, 0, 0, 0, 0
     | 0, 0, 0, 0, 0
     | 0, 0, 0, 0, 0 |];

requiere = [| false, false, false, false, false
            | false, false, false, false, false
            | true,  false, false, false, false
            | true,  false, false, false, false
            | false, false, false, false, false |];

reemplazo = [| false, false, false, false, false
             | false, false, false, false, false
             | false, false, false, false, false
             | false, false, false, false, false
             | true,  false, false, false, false |];
